MARKOV
540
 2 2 2 2 2 2 2 2 2 2 2 2 2 2 2 2 2 2 2 2 2 2 2 2 2 2 2 2 2 2 2 2 2 2 2 2 2 2 2 2 2 2 2 2 2 2 2 2 2 2 2 2 2 2 2 2 2 2 2 2 2 2 2 2 2 2 2 2 2 2 2 2 2 2 2 2 2 2 2 2 2 2 2 2 2 2 2 2 2 2 2 2 2 2 2 2 2 2 2 2 2 2 2 2 2 2 2 2 2 2 2 2 2 2 2 2 2 2 2 2 2 2 2 2 2 2 2 2 2 2 2 2 2 2 2 2 2 2 2 2 2 2 2 2 2 2 2 2 2 2 2 2 2 2 2 2 2 2 2 2 2 2 2 2 2 2 2 2 2 2 2 2 2 2 2 2 2 2 2 2 2 2 2 2 2 2 2 2 2 2 2 2 2 2 2 2 2 2 2 2 2 2 2 2 2 2 2 2 2 2 2 2 2 2 2 2 2 2 2 2 2 2 2 2 2 2 2 2 2 2 2 2 2 2 2 2 2 2 2 2 2 2 2 2 2 2 2 2 2 2 2 2 2 2 2 2 2 2 2 2 2 2 2 2 2 2 2 2 2 2 2 2 2 2 2 2 2 2 2 2 2 2 2 2 2 2 2 2 2 2 2 2 2 2 2 2 2 2 2 2 2 2 2 2 2 2 2 2 2 2 2 2 2 2 2 2 2 2 2 2 2 2 2 2 2 2 2 2 2 2 2 2 2 2 2 2 2 2 2 2 2 2 2 2 2 2 2 2 2 2 2 2 2 2 2 2 2 2 2 2 2 2 2 2 2 2 2 2 2 2 2 2 2 2 2 2 2 2 2 2 2 2 2 2 2 2 2 2 2 2 2 2 2 2 2 2 2 2 2 2 2 2 2 2 2 2 2 2 2 2 2 2 2 2 2 2 2 2 2 2 2 2 2 2 2 2 2 2 2 2 2 2 2 2 2 2 2 2 2 2 2 2 2 2 2 2 2 2 2 2 2 2 2 2 2 2 2 2 2 2 2 2 2 2 2 2 2 2 2 2 2 2 2 2 2 2 2 2 2 2 2 2 2 2 2 2 2 2 2 2 2 2 2 2 2 2 2 2 2 2 2 2 2 2 2 2 2 2 2 2 2 2 2 2 2 2 2 2 2 2 2 2 2 2 2 2 2 2 2 2 2 2 2 2 2 2 2 2 2 2
547
3	80 154 539 
3	185 538 539 
1	538 
3	48 91 537 
3	179 536 537 
3	114 535 536 
3	89 534 535 
3	92 533 534 
3	21 532 533 
3	163 531 532 
3	99 530 531 
3	52 529 530 
3	177 528 529 
3	43 527 528 
3	112 526 527 
3	125 525 526 
3	183 524 525 
3	132 523 524 
3	29 522 523 
3	38 521 522 
3	72 520 521 
3	95 519 520 
3	87 518 519 
3	44 517 518 
3	90 516 517 
3	94 515 516 
3	12 514 515 
3	217 513 514 
3	36 512 513 
3	169 511 512 
3	223 510 511 
3	180 509 510 
3	67 508 509 
3	66 507 508 
3	11 506 507 
3	130 505 506 
3	20 504 505 
3	195 503 504 
3	16 502 503 
3	49 501 502 
3	199 500 501 
3	57 499 500 
3	97 498 499 
3	79 497 498 
3	2 496 497 
3	162 495 496 
3	210 494 495 
3	140 493 494 
3	32 492 493 
3	200 491 492 
3	25 490 491 
3	35 489 490 
3	59 488 489 
3	10 487 488 
3	144 486 487 
3	150 485 486 
3	167 484 485 
3	139 483 484 
3	4 482 483 
3	84 481 482 
3	1 480 481 
3	115 479 480 
3	58 478 479 
3	82 477 478 
3	152 476 477 
3	41 475 476 
3	165 474 475 
3	30 473 474 
3	215 472 473 
3	136 471 472 
3	88 470 471 
3	148 469 470 
3	219 468 469 
3	178 467 468 
1	467 
1	80 
3	91 107 466 
3	175 465 466 
3	0 464 465 
3	146 463 464 
3	128 462 463 
3	39 461 462 
3	153 460 461 
3	99 459 460 
3	93 458 459 
3	85 457 458 
3	8 456 457 
3	207 455 456 
3	158 454 455 
3	26 453 454 
3	127 452 453 
3	112 451 452 
3	193 450 451 
3	211 449 450 
3	157 448 449 
3	131 447 448 
3	213 446 447 
3	7 445 446 
3	64 444 445 
3	78 443 444 
3	145 442 443 
3	54 441 442 
3	142 440 441 
3	138 439 440 
3	192 438 439 
3	156 437 438 
3	205 436 437 
3	17 435 436 
3	187 434 435 
3	159 433 434 
3	204 432 433 
3	120 431 432 
3	116 430 431 
3	189 429 430 
3	83 428 429 
3	176 427 428 
3	172 426 427 
3	13 425 426 
3	9 424 425 
3	6 423 424 
3	46 422 423 
3	75 421 422 
3	122 420 421 
3	129 419 420 
3	103 418 419 
3	196 417 418 
3	100 416 417 
3	135 415 416 
3	143 414 415 
3	178 413 414 
3	123 412 413 
1	412 
3	62 70 411 
3	6 410 411 
3	213 409 410 
3	18 408 409 
3	75 407 408 
3	81 406 407 
3	197 405 406 
3	106 404 405 
3	100 403 404 
3	85 402 403 
3	5 401 402 
3	51 400 401 
3	156 399 400 
3	220 398 399 
3	193 397 398 
1	397 
3	170 175 396 
3	60 395 396 
3	76 394 395 
3	198 393 394 
3	99 392 393 
3	37 391 392 
3	42 390 391 
3	77 389 390 
3	211 388 389 
3	147 387 388 
3	124 386 387 
3	94 385 386 
3	31 384 385 
3	111 383 384 
3	104 382 383 
3	23 381 382 
3	171 380 381 
3	192 379 380 
3	205 378 379 
3	187 377 378 
3	159 376 377 
3	120 375 376 
3	204 374 375 
3	194 373 374 
3	68 372 373 
3	200 371 372 
3	189 370 371 
3	80 369 370 
3	96 368 369 
3	84 367 368 
3	75 366 367 
3	47 365 366 
3	15 364 365 
3	88 363 364 
3	118 362 363 
3	190 361 362 
3	89 360 361 
3	197 359 360 
3	161 358 359 
3	34 357 358 
3	63 356 357 
3	92 355 356 
3	218 354 355 
3	73 353 354 
3	65 352 353 
3	93 351 352 
3	43 350 351 
3	207 349 350 
3	112 348 349 
3	125 347 348 
3	201 346 347 
3	70 345 346 
3	131 344 345 
3	64 343 344 
3	12 342 343 
3	113 341 342 
3	55 340 341 
3	54 339 340 
3	212 338 339 
3	186 337 338 
3	180 336 337 
3	155 335 336 
3	20 334 335 
3	51 333 334 
3	5 332 333 
3	156 331 332 
3	49 330 331 
3	117 329 330 
3	62 328 329 
3	160 327 328 
3	19 326 327 
3	81 325 326 
3	102 324 325 
3	182 323 324 
3	203 322 323 
3	172 321 322 
3	74 320 321 
3	9 319 320 
3	137 318 319 
3	58 317 318 
3	50 316 317 
3	134 315 316 
3	103 314 315 
3	100 313 314 
3	209 312 313 
3	86 311 312 
3	178 310 311 
3	151 309 310 
3	107 308 309 
3	110 307 308 
3	91 306 307 
3	48 305 306 
3	0 304 305 
3	146 303 304 
3	208 302 303 
3	39 301 302 
3	56 300 301 
3	33 299 300 
3	153 298 299 
3	206 297 298 
3	8 296 297 
3	177 295 296 
3	214 294 295 
3	26 293 294 
3	193 292 293 
3	7 291 292 
3	213 290 291 
3	133 289 290 
3	78 288 289 
3	169 287 288 
3	105 286 287 
3	195 285 286 
3	168 284 285 
3	199 283 284 
3	17 282 283 
3	61 281 282 
3	101 280 281 
3	164 279 280 
3	216 278 279 
3	141 277 278 
3	28 276 277 
3	108 275 276 
3	184 274 275 
3	83 273 274 
3	126 272 273 
3	167 271 272 
3	149 270 271 
3	122 269 270 
3	119 268 269 
3	129 267 268 
3	106 266 267 
3	69 265 266 
3	166 264 265 
3	196 263 264 
3	174 262 263 
3	98 261 262 
3	188 260 261 
3	191 259 260 
3	109 258 259 
3	128 257 258 
3	222 256 257 
3	173 255 256 
3	3 254 255 
3	21 253 254 
3	27 252 253 
3	24 251 252 
3	85 250 251 
3	158 249 250 
3	127 248 249 
3	202 247 248 
3	157 246 247 
3	18 245 246 
3	145 244 245 
3	217 243 244 
3	181 242 243 
3	142 241 242 
3	138 240 241 
3	121 239 240 
3	221 238 239 
3	116 237 238 
3	71 236 237 
3	45 235 236 
3	40 234 235 
3	176 233 234 
3	14 232 233 
3	13 231 232 
3	6 230 231 
3	46 229 230 
3	22 228 229 
3	135 227 228 
3	143 226 227 
3	53 225 226 
3	123 224 225 
1	224 
1	170 
1	175 
1	114 
1	60 
1	76 
1	163 
1	198 
1	37 
1	99 
1	42 
1	52 
1	132 
1	183 
1	77 
1	211 
1	124 
1	147 
1	90 
1	94 
1	31 
1	111 
1	104 
1	23 
1	171 
1	192 
1	205 
1	187 
1	159 
1	120 
1	204 
1	154 
1	194 
1	68 
1	32 
1	200 
1	80 
1	189 
1	96 
1	10 
1	144 
1	115 
1	84 
1	152 
1	75 
1	47 
1	15 
1	215 
1	88 
1	219 
1	118 
1	190 
1	220 
1	89 
1	197 
1	161 
1	34 
1	63 
1	92 
1	218 
1	73 
1	65 
1	93 
1	43 
1	207 
1	112 
1	125 
1	201 
1	70 
1	87 
1	131 
1	64 
1	12 
1	113 
1	55 
1	54 
1	212 
1	186 
1	180 
1	67 
1	155 
1	130 
1	20 
1	51 
1	5 
1	156 
1	49 
1	117 
1	57 
1	62 
1	97 
1	160 
1	19 
1	81 
1	210 
1	102 
1	182 
1	35 
1	203 
1	172 
1	74 
1	139 
1	4 
1	9 
1	58 
1	137 
1	50 
1	134 
1	30 
1	103 
1	100 
1	209 
1	86 
1	178 
1	151 
1	107 
1	91 
1	110 
1	48 
1	0 
1	146 
1	208 
1	39 
1	56 
1	33 
1	153 
1	206 
1	8 
1	177 
1	214 
1	26 
1	38 
1	193 
1	72 
1	95 
1	7 
1	213 
1	133 
1	78 
1	36 
1	169 
1	223 
1	66 
1	11 
1	105 
1	195 
1	168 
1	199 
1	17 
1	61 
1	101 
1	164 
1	185 
1	216 
1	141 
1	25 
1	108 
1	28 
1	184 
1	83 
1	126 
1	167 
1	150 
1	149 
1	82 
1	41 
1	122 
1	119 
1	69 
1	106 
1	129 
1	165 
1	166 
1	196 
1	174 
1	98 
1	191 
1	188 
1	109 
1	128 
1	179 
1	222 
1	173 
1	3 
1	21 
1	27 
1	24 
1	85 
1	158 
1	127 
1	202 
1	29 
1	157 
1	44 
1	18 
1	145 
1	217 
1	181 
1	142 
1	138 
1	121 
1	16 
1	221 
1	116 
1	79 
1	71 
1	162 
1	2 
1	45 
1	140 
1	40 
1	59 
1	176 
1	14 
1	13 
1	6 
1	1 
1	46 
1	22 
1	136 
1	148 
1	135 
1	143 
1	53 
1	123 
0	

8
 1 0 0.5 0.5 0.3 0.7 0.15 0.85
8
 1 0 0 1 0.5 0 0.5 1
2
 0.03 1
8
 1 0 0.1 0.9 0.5 0.5 0.05 0.95
8
 1 0 0 1 0.5 0 0.5 1
8
 1 0 0 1 0.1 0 0.9 1
8
 1 0 0 1 0.1 0 0.9 1
8
 1 0 0 1 0.1 0 0.9 1
8
 1 0 0 1 0.09 0 0.91 1
8
 1 0 0 1 0.5 0 0.5 1
8
 1 0 0 1 0.01 0 0.99 1
8
 1 0 0 1 0.95 0 0.05 1
8
 1 0 0 1 0.5 0 0.5 1
8
 1 0 0 1 0.19 0 0.81 1
8
 1 0 0 1 0.01 0 0.99 1
8
 1 0 0 1 0.01 0 0.99 1
8
 1 0 0 1 0.09 0 0.91 1
8
 1 0 0 1 0.5 0 0.5 1
8
 1 0 0 1 0.01 0 0.99 1
8
 1 0 0 1 0.1 0 0.9 1
8
 1 0 0 1 0.05 0 0.95 1
8
 1 0 0 1 0.1 0 0.9 1
8
 1 0 0 1 0.19 0 0.81 1
8
 1 0 0 1 0.19 0 0.81 1
8
 1 0 0 1 0.1 0 0.9 1
8
 1 0 0 1 0.05 0 0.95 1
8
 1 0 0 1 0.5 0 0.5 1
8
 1 0 0 1 0.05 0 0.95 1
8
 1 0 0 1 0.01 0 0.99 1
8
 1 0 0 1 0.5 0 0.5 1
8
 1 0 0 1 0.2 0 0.8 1
8
 1 0 0 1 0.1 0 0.9 1
8
 1 0 0 1 0.5 0 0.5 1
8
 1 0 0 1 0.5 0 0.5 1
8
 1 0 0 1 0.95 0 0.05 1
8
 1 0 0 1 0.89 0 0.11 1
8
 1 0 0 1 0.5 0 0.5 1
8
 1 0 0 1 0.5 0 0.5 1
8
 1 0 0 1 0.01 0 0.99 1
8
 1 0 0 1 0.5 0 0.5 1
8
 1 0 0 1 0.2 0 0.8 1
8
 1 0 0 1 0.5 0 0.5 1
8
 1 0 0 1 0.5 0 0.5 1
8
 1 0 0 1 0.09 0 0.91 1
8
 1 0 0 1 0.19 0 0.81 1
8
 1 0 0 1 0.5 0 0.5 1
8
 1 0 0 1 0.09 0 0.91 1
8
 1 0 0 1 0.5 0 0.5 1
8
 1 0 0 1 0.59 0 0.41 1
8
 1 0 0 1 0.5 0 0.5 1
8
 1 0 0 1 0.1 0 0.9 1
8
 1 0 0 1 0.1 0 0.9 1
8
 1 0 0 1 0.01 0 0.99 1
8
 1 0 0 1 0.3 0 0.7 1
8
 1 0 0 1 0 0 1 1
8
 1 0 0 1 0.1 0 0.9 1
8
 1 0 0 1 0.5 0 0.5 1
8
 1 0 0 1 0.5 0 0.5 1
8
 1 0 0 1 0.19 0 0.81 1
8
 1 0 0 1 0.5 0 0.5 1
8
 1 0 0 1 0.19 0 0.81 1
8
 1 0 0 1 0.09 0 0.91 1
8
 1 0 0 1 0.1 0 0.9 1
8
 1 0 0 1 0.5 0 0.5 1
8
 1 0 0 1 0.5 0 0.5 1
8
 1 0 0 1 0.59 0 0.41 1
8
 1 0 0 1 0.05 0 0.95 1
8
 1 0 0 1 0.19 0 0.81 1
8
 1 0 0 1 0.05 0 0.95 1
8
 1 0 0 1 0.2 0 0.8 1
8
 1 0 0 1 0.1 0 0.9 1
8
 1 0 0 1 0.5 0 0.5 1
8
 1 0 0 1 0.5 0 0.5 1
8
 1 0 0 1 0.1 0 0.9 1
2
 0.03 1
2
 0.03 0.709
8
 1 0 0 1 0 1 0 1
8
 1 0 0 1 0 0 1 1
8
 1 0 0 1 0 0 1 1
8
 1 0 0 1 0 0 1 1
8
 1 0 0 1 0 0 1 1
8
 1 0 0 1 0 0 1 1
8
 1 0 0 1 0 0 1 1
8
 1 0 0 1 0 0 1 1
8
 1 0 0 1 0 0 1 1
8
 1 0 0 1 0 0 1 1
8
 1 0 0 1 0 0 1 1
8
 1 0 0 1 0 0 1 1
8
 1 0 0 1 0 0 1 1
8
 1 0 0 1 0 0 1 1
8
 1 0 0 1 0 0 1 1
8
 1 0 0 1 0 0 1 1
8
 1 0 0 1 0 0 1 1
8
 1 0 0 1 0 0 1 1
8
 1 0 0 1 0 0 1 1
8
 1 0 0 1 0 0 1 1
8
 1 0 0 1 0 0 1 1
8
 1 0 0 1 0 0 1 1
8
 1 0 0 1 0 0 1 1
8
 1 0 0 1 0 0 1 1
8
 1 0 0 1 0 0 1 1
8
 1 0 0 1 0 0 1 1
8
 1 0 0 1 0 0 1 1
8
 1 0 0 1 0 0 1 1
8
 1 0 0 1 0 0 1 1
8
 1 0 0 1 0 0 1 1
8
 1 0 0 1 0 0 1 1
8
 1 0 0 1 0 0 1 1
8
 1 0 0 1 0 0 1 1
8
 1 0 0 1 0 0 1 1
8
 1 0 0 1 0 0 1 1
8
 1 0 0 1 0 0 1 1
8
 1 0 0 1 0 0 1 1
8
 1 0 0 1 0 0 1 1
8
 1 0 0 1 0 0 1 1
8
 1 0 0 1 0 0 1 1
8
 1 0 0 1 0 0 1 1
8
 1 0 0 1 0 0 1 1
8
 1 0 0 1 0 0 1 1
8
 1 0 0 1 0 0 1 1
8
 1 0 0 1 0 0 1 1
8
 1 0 0 1 0 0 1 1
8
 1 0 0 1 0 0 1 1
8
 1 0 0 1 0 0 1 1
8
 1 0 0 1 0 0 1 1
8
 1 0 0 1 0 0 1 1
8
 1 0 0 1 0 0 1 1
8
 1 0 0 1 0 0 1 1
8
 1 0 0 1 0 0 1 1
8
 1 0 0 1 0 0 1 1
8
 1 0 0 1 0 0 1 1
2
 0.03 1
8
 1 0 0.57 0.43 0.5 0.5 0.285 0.715
8
 1 0 0 1 0.1 0 0.9 1
8
 1 0 0 1 0.09 0 0.91 1
8
 1 0 0 1 0.5 0 0.5 1
8
 1 0 0 1 0.1 0 0.9 1
8
 1 0 0 1 0.5 0 0.5 1
8
 1 0 0 1 0.5 0 0.5 1
8
 1 0 0 1 0.5 0 0.5 1
8
 1 0 0 1 0.01 0 0.99 1
8
 1 0 0 1 0.5 0 0.5 1
8
 1 0 0 1 0.5 0 0.5 1
8
 1 0 0 1 0.4 0 0.6 1
8
 1 0 0 1 0.1 0 0.9 1
8
 1 0 0 1 0.01 0 0.99 1
8
 1 0 0 1 0.2 0 0.8 1
2
 0.03 1
8
 1 0 0 1 0.9 0.1 0 1
8
 1 0 0 1 0.2 0 0.8 1
8
 1 0 0 1 0.4 0 0.6 1
8
 1 0 0 1 0.5 0 0.5 1
8
 1 0 0 1 0 0 1 1
8
 1 0 0 1 0.9 0 0.1 1
8
 1 0 0 1 0.5 0 0.5 1
8
 1 0 0 1 0.5 0 0.5 1
8
 1 0 0 1 0 0 1 1
8
 1 0 0 1 0.89 0 0.11 1
8
 1 0 0 1 0.5 0 0.5 1
8
 1 0 0 1 0.2 0 0.8 1
8
 1 0 0 1 0.4 0 0.6 1
8
 1 0 0 1 0.1 0 0.9 1
8
 1 0 0 1 0.5 0 0.5 1
8
 1 0 0 1 0.5 0 0.5 1
8
 1 0 0 1 0.1 0 0.9 1
8
 1 0 0 1 0 0 1 1
8
 1 0 0 1 0.5 0 0.5 1
8
 1 0 0 1 0.01 0 0.99 1
8
 1 0 0 1 0 0 1 1
8
 1 0 0 1 0 0 1 1
8
 1 0 0 1 0 0 1 1
8
 1 0 0 1 0.5 0 0.5 1
8
 1 0 0 1 0.9 0 0.1 1
8
 1 0 0 1 0.5 0 0.5 1
8
 1 0 0 1 0 0 1 1
8
 1 0 0 1 0.5 0 0.5 1
8
 1 0 0 1 0.9 0 0.1 1
8
 1 0 0 1 0.5 0 0.5 1
8
 1 0 0 1 0 0 1 1
8
 1 0 0 1 0.1 0 0.9 1
8
 1 0 0 1 0.5 0 0.5 1
8
 1 0 0 1 0.9 0 0.1 1
8
 1 0 0 1 0.5 0 0.5 1
8
 1 0 0 1 0.5 0 0.5 1
8
 1 0 0 1 0.9 0 0.1 1
8
 1 0 0 1 0.09 0 0.91 1
8
 1 0 0 1 0.5 0 0.5 1
8
 1 0 0 1 0.1 0 0.9 1
8
 1 0 0 1 0.5 0 0.5 1
8
 1 0 0 1 0.9 0 0.1 1
8
 1 0 0 1 0.09 0 0.91 1
8
 1 0 0 1 0.5 0 0.5 1
8
 1 0 0 1 0.5 0 0.5 1
8
 1 0 0 1 0 0 1 1
8
 1 0 0 1 0.5 0 0.5 1
8
 1 0 0 1 0 0 1 1
8
 1 0 0 1 0 0 1 1
8
 1 0 0 1 0.5 0 0.5 1
8
 1 0 0 1 0.1 0 0.9 1
8
 1 0 0 1 0.57 0 0.43 1
8
 1 0 0 1 0 0 1 1
8
 1 0 0 1 0 0 1 1
8
 1 0 0 1 0.5 0 0.5 1
8
 1 0 0 1 0.5 0 0.5 1
8
 1 0 0 1 0.9 0 0.1 1
8
 1 0 0 1 0 0 1 1
8
 1 0 0 1 0.5 0 0.5 1
8
 1 0 0 1 0.1 0 0.9 1
8
 1 0 0 1 0.5 0 0.5 1
8
 1 0 0 1 0.1 0 0.9 1
8
 1 0 0 1 0.5 0 0.5 1
8
 1 0 0 1 0.4 0 0.6 1
8
 1 0 0 1 0.5 0 0.5 1
8
 1 0 0 1 0 0 1 1
8
 1 0 0 1 0.5 0 0.5 1
8
 1 0 0 1 0.9 0 0.1 1
8
 1 0 0 1 0.5 0 0.5 1
8
 1 0 0 1 0.89 0 0.11 1
8
 1 0 0 1 0.5 0 0.5 1
8
 1 0 0 1 0.5 0 0.5 1
8
 1 0 0 1 0.5 0 0.5 1
8
 1 0 0 1 0.4 0 0.6 1
8
 1 0 0 1 0.5 0 0.5 1
8
 1 0 0 1 0 0 1 1
8
 1 0 0 1 0.1 0 0.9 1
8
 1 0 0 1 0.6 0 0.4 1
8
 1 0 0 1 0.5 0 0.5 1
8
 1 0 0 1 0.1 0 0.9 1
8
 1 0 0 1 0.4 0 0.6 1
8
 1 0 0 1 0.5 0 0.5 1
8
 1 0 0 1 0 0 1 1
8
 1 0 0 1 0 0 1 1
8
 1 0 0 1 0.1 0 0.9 1
8
 1 0 0 1 0.59 0 0.41 1
8
 1 0 0 1 0 0 1 1
8
 1 0 0 1 0.4 0 0.6 1
8
 1 0 0 1 0 0 1 1
8
 1 0 0 1 0.5 0 0.5 1
8
 1 0 0 1 0.9 0 0.1 1
8
 1 0 0 1 0.5 0 0.5 1
8
 1 0 0 1 0 0 1 1
8
 1 0 0 1 0 0 1 1
8
 1 0 0 1 0.9 0 0.1 1
8
 1 0 0 1 0.6 0 0.4 1
8
 1 0 0 1 0.4 0 0.6 1
8
 1 0 0 1 0.5 0 0.5 1
8
 1 0 0 1 0.1 0 0.9 1
8
 1 0 0 1 0.4 0 0.6 1
8
 1 0 0 1 0 0 1 1
8
 1 0 0 1 0.5 0 0.5 1
8
 1 0 0 1 0.09 0 0.91 1
8
 1 0 0 1 0 0 1 1
8
 1 0 0 1 0 0 1 1
8
 1 0 0 1 0 0 1 1
8
 1 0 0 1 0 0 1 1
8
 1 0 0 1 0.89 0 0.11 1
8
 1 0 0 1 0 0 1 1
8
 1 0 0 1 0.5 0 0.5 1
8
 1 0 0 1 0.5 0 0.5 1
8
 1 0 0 1 0.5 0 0.5 1
8
 1 0 0 1 0.5 0 0.5 1
8
 1 0 0 1 0.5 0 0.5 1
8
 1 0 0 1 0 0 1 1
8
 1 0 0 1 0.5 0 0.5 1
8
 1 0 0 1 0.4 0 0.6 1
8
 1 0 0 1 0.5 0 0.5 1
8
 1 0 0 1 0.7 0 0.3 1
8
 1 0 0 1 0.5 0 0.5 1
8
 1 0 0 1 0.89 0 0.11 1
8
 1 0 0 1 0.5 0 0.5 1
8
 1 0 0 1 0.9 0 0.1 1
8
 1 0 0 1 0 0 1 1
8
 1 0 0 1 0.9 0 0.1 1
8
 1 0 0 1 0.5 0 0.5 1
8
 1 0 0 1 0.5 0 0.5 1
8
 1 0 0 1 0 0 1 1
8
 1 0 0 1 0.75 0 0.25 1
8
 1 0 0 1 0 0 1 1
8
 1 0 0 1 0.09 0 0.91 1
8
 1 0 0 1 0.5 0 0.5 1
8
 1 0 0 1 0.5 0 0.5 1
8
 1 0 0 1 0 0 1 1
8
 1 0 0 1 0.9 0 0.1 1
8
 1 0 0 1 0.7 0 0.3 1
8
 1 0 0 1 0.4 0 0.6 1
8
 1 0 0 1 0.5 0 0.5 1
8
 1 0 0 1 0.1 0 0.9 1
8
 1 0 0 1 0 0 1 1
8
 1 0 0 1 0.6 0 0.4 1
8
 1 0 0 1 0.5 0 0.5 1
8
 1 0 0 1 0.4 0 0.6 1
8
 1 0 0 1 0.9 0 0.1 1
8
 1 0 0 1 0.5 0 0.5 1
8
 1 0 0 1 0.9 0 0.1 1
8
 1 0 0 1 0 0 1 1
8
 1 0 0 1 0 0 1 1
8
 1 0 0 1 0 0 1 1
8
 1 0 0 1 0.4 0 0.6 1
8
 1 0 0 1 0 0 1 1
8
 1 0 0 1 0.09 0 0.91 1
8
 1 0 0 1 0 0 1 1
8
 1 0 0 1 0.9 0 0.1 1
8
 1 0 0 1 0.5 0 0.5 1
8
 1 0 0 1 0 0 1 1
8
 1 0 0 1 0 0 1 1
8
 1 0 0 1 0.9 0 0.1 1
8
 1 0 0 1 0.9 0 0.1 1
8
 1 0 0 1 0 0 1 1
8
 1 0 0 1 0.05 0 0.95 1
8
 1 0 0 1 0.5 0 0.5 1
8
 1 0 0 1 0.5 0 0.5 1
8
 1 0 0 1 0 0 1 1
8
 1 0 0 1 0.5 0 0.5 1
8
 1 0 0 1 0 0 1 1
8
 1 0 0 1 0.1 0 0.9 1
8
 1 0 0 1 0 0 1 1
8
 1 0 0 1 0.5 0 0.5 1
8
 1 0 0 1 0 0 1 1
8
 1 0 0 1 0 0 1 1
8
 1 0 0 1 0.9 0 0.1 1
8
 1 0 0 1 0.01 0 0.99 1
2
 0.03 1
2
 0.9995 0.0005
2
 0.99995 5e-05
2
 0.99968 0.00032
2
 0.999995 5e-06
2
 0.9999 0.0001
2
 0.9986 0.0014
2
 0.99999 1e-05
2
 0.99975 0.00025
2
 0.999 0.001
2
 0.99999 1e-05
2
 0.9998 0.0002
2
 0.99991 9e-05
2
 0.9998 0.0002
2
 0.99999 1e-05
2
 0.9999 0.0001
2
 0.99975 0.00025
2
 0.9999 0.0001
2
 0.9999 0.0001
2
 0.9999 0.0001
2
 0.9999 0.0001
2
 0.999999 1e-06
2
 0.99989 0.00011
2
 0.9999 0.0001
2
 0.9999 0.0001
2
 0.9999 0.0001
2
 0.99998 2e-05
2
 0.99999 1e-05
2
 0.9999 0.0001
2
 0.99995 5e-05
2
 0.998 0.002
2
 0.99992 8e-05
2
 0.99974 0.00026
2
 0.999998 2e-06
2
 0.999999 1e-06
2
 0.99989 0.00011
2
 0.9999 0.0001
2
 0.99995 5e-05
2
 0.99996 4e-05
2
 0.99982 0.00018
2
 0.9996 0.0004
2
 0.99996 4e-05
2
 0.99981 0.00019
2
 0.9999 0.0001
2
 0.99998 2e-05
2
 0.9999 0.0001
2
 0.9999 0.0001
2
 0.9999 0.0001
2
 0.99992 8e-05
2
 0.9995 0.0005
2
 0.9999 0.0001
2
 0.99999 1e-05
2
 0.99998 2e-05
2
 0.9996 0.0004
2
 0.99996 4e-05
2
 0.99995 5e-05
2
 0.9999 0.0001
2
 0.9995 0.0005
2
 0.999973 2.7e-05
2
 0.99995 5e-05
2
 0.99999 1e-05
2
 0.9999 0.0001
2
 0.9999 0.0001
2
 0.9991 0.0009
2
 0.9999 0.0001
2
 0.9995 0.0005
2
 0.99995 5e-05
2
 0.9999 0.0001
2
 0.9999 0.0001
2
 0.99991 9e-05
2
 0.9996 0.0004
2
 0.99998 2e-05
2
 0.99999 1e-05
2
 0.9999 0.0001
2
 0.9998 0.0002
2
 0.9999 0.0001
2
 0.9995 0.0005
2
 0.99999 1e-05
2
 0.9995 0.0005
2
 0.9994 0.0006
2
 0.9998 0.0002
2
 0.99993 7e-05
2
 0.9991 0.0009
2
 0.9998 0.0002
2
 0.99995 5e-05
2
 0.9998 0.0002
2
 0.9998 0.0002
2
 0.9994 0.0006
2
 0.99975 0.00025
2
 0.99999 1e-05
2
 0.9999 0.0001
2
 0.9999 0.0001
2
 0.9995 0.0005
2
 0.9999 0.0001
2
 0.9995 0.0005
2
 0.9997 0.0003
2
 0.9999 0.0001
2
 0.9995 0.0005
2
 0.99984 0.00016
2
 0.99993 7e-05
2
 0.9996 0.0004
2
 0.9999 0.0001
2
 0.9999 0.0001
2
 0.99997 3e-05
2
 0.9999 0.0001
2
 0.999 0.001
2
 0.996 0.004
2
 0.9999 0.0001
2
 0.999 0.001
2
 0.9999 0.0001
2
 0.99998 2e-05
2
 0.99995 5e-05
2
 0.9965 0.0035
2
 0.9999 0.0001
2
 0.9928 0.0072
2
 0.9999 0.0001
2
 0.99985 0.00015
2
 0.99996 4e-05
2
 0.9999 0.0001
2
 0.9999 0.0001
2
 0.9999 0.0001
2
 0.999977 2.291e-05
2
 0.9996 0.0004
2
 0.996 0.004
2
 0.99989 0.00011
2
 0.99995 5e-05
2
 0.9999 0.0001
2
 0.998 0.002
2
 0.9988 0.0012
2
 0.99995 5e-05
2
 0.994 0.006
2
 0.9999 0.0001
2
 0.99987 0.00013
2
 0.9997 0.0003
2
 0.999999 6.2e-07
2
 0.99995 5e-05
2
 0.99995 5e-05
2
 0.99999 1e-05
2
 0.99998 2e-05
2
 0.99974 0.00026
2
 1 1.2e-07
2
 0.9995 0.0005
2
 0.9996 0.0004
2
 0.997 0.003
2
 0.99995 5e-05
2
 0.9999 0.0001
2
 0.99998 2e-05
2
 0.99999 1e-05
2
 0.9999 0.0001
2
 0.9999 0.0001
2
 0.999996 4e-06
2
 0.9995 0.0005
2
 0.9999 0.0001
2
 1 1.6e-07
2
 0.9999 0.0001
2
 0.9994 0.0006
2
 0.9999 0.0001
2
 0.9999 0.0001
2
 0.999907 9.332e-05
2
 0.9999 0.0001
2
 0.9994 0.0006
2
 0.9999 0.0001
2
 0.99989 0.00011
2
 0.999969 3.12e-05
2
 0.999999 1e-06
2
 0.9992 0.0008
2
 0.99995 5e-05
2
 0.999992 8e-06
2
 0.9999 0.0001
2
 0.99975 0.00025
2
 0.9999 0.0001
2
 0.9999 0.0001
2
 0.99999 1e-05
2
 0.9999 0.0001
2
 0.99999 1e-05
2
 0.9998 0.0002
2
 0.99998 2e-05
2
 0.9999 0.0001
2
 0.9999 0.0001
2
 0.9999 0.0001
2
 0.99999 1e-05
2
 0.9995 0.0005
2
 0.9995 0.0005
2
 0.99991 9e-05
2
 0.99991 9e-05
2
 0.9999 0.0001
2
 0.9999 0.0001
2
 0.99995 5e-05
2
 0.99997 3e-05
2
 0.9985 0.0015
2
 0.9995 0.0005
2
 0.9999 0.0001
2
 0.99995 5e-05
2
 0.9999 0.0001
2
 0.99994 6e-05
2
 0.9999 0.0001
2
 0.9998 0.0002
2
 0.9999 0.0001
2
 0.99997 3e-05
2
 0.99997 3e-05
2
 0.9999 0.0001
2
 0.99995 5e-05
2
 0.9995 0.0005
2
 0.9999 0.0001
2
 0.9997 0.0003
2
 0.9999 0.0001
2
 0.9975 0.0025
2
 0.999999 1e-06
2
 0.9999 0.0001
2
 0.9995 0.0005
2
 0.99997 3e-05
2
 0.9999 0.0001
2
 0.9999 0.0001
2
 0.99999 1e-05
2
 0.9999 0.0001
2
 0.99996 4e-05
2
 0.99997 3e-05
2
 0.9999 0.0001
2
 0.9998 0.0002
2
 0.9994 0.0006
2
 0.9999 0.0001
2
 0.99997 3e-05
2
 0.99998 2e-05
2
 0.9999 0.0001
2
 0.99993 7e-05
1
 1

